peakDumbCharging = 7400; 
Machine = anon_enum(16); 
machineSpeed = [3700,3700,3700,3700,3700,3700,3700,3700,3700,3700,3700,3700,3700,3700,3700,3700]; 
machineLoad = [3700,3700,3700,3700,3700,3700,3700,3700,3700,3700,3700,3700,3700,3700,3700,3700]; 
Car = anon_enum(8); 
demandCar = [7920,9200,7560,16040,6920,13360,6040,34960]; 
arrivalCar = [79,71,64,60,53,51,48,32]; 
departureCar = [82,75,71,67,56,56,53,48]; 
